32      4       
14      16      18      15      
0       0       0       0       0       3       2       3       4       
5       0       0       0       2       3       6       7       18      
8       0       0       9       0       2       5       10      
1       0       0       0       3       3       13      15      27      
9       0       10      0       0       1       9       
5       0       3       0       0       2       8       28      
9       0       0       0       8       3       11      17      31      
6       0       0       5       0       1       19      
8       0       0       9       0       2       12      23      
8       0       0       0       7       1       27      
7       0       0       10      0       1       20      
5       7       0       0       0       1       16      
6       0       0       0       8       2       14      22      
9       0       9       0       0       1       29      
3       0       0       9       0       3       20      21      25      
6       0       0       0       8       1       26      
3       0       0       0       1       1       22      
3       0       0       0       5       1       30      
9       0       0       0       7       1       22      
7       0       0       0       7       2       24      29      
6       8       0       0       0       2       26      28      
7       10      0       0       0       1       25      
5       0       8       0       0       2       26      27      
9       0       6       0       0       1       30      
5       0       0       6       0       1       29      
9       0       0       2       0       1       30      
8       0       0       0       5       1       31      
9       0       0       7       0       1       31      
4       0       0       0       6       1       32      
6       0       10      0       0       1       32      
8       0       0       3       0       1       32      
0       0       0       0       0       0       